============================[ Problem Statistics ]=============================|                                                                             ||  Number of variables:          4242                                         ||  Number of clauses:            9686                                         ||  Parse time:                   0.09 s                                       ||                                                                             |============================[ Search Statistics ]==============================| Conflicts |          ORIGINAL         |          LEARNT          | Progress ||           |    Vars  Clauses Literals |    Limit  Clauses Lit/Cl |          |==============================================================================================================================================================restarts              : 1conflicts             : 55             (404 /sec)decisions             : 139            (0.00 % random) (1022 /sec)propagations          : 8138           (59838 /sec)conflict literals     : 2487           (95.89 % deleted)CPU time              : 0.136 sSATISFIABLE